p cnf 18 65

 c first condition 
 -1 -2 -3 0 

 c second condition 
 2 3 0 
 1 3 0 
 1 2 0 

 c third condition 
 -1 -4 -5 0 
 -2 -6 -7 0 
 -3 -8 -9 0 

 c fourth condition 
 4 5 0 
 1 5 0 
 1 4 0 
 6 7 0 
 2 7 0 
 2 6 0 
 8 9 0 
 3 9 0 
 3 8 0 

 c fifth condition 
 -1 -2 -4 0 
 -1 -3 -5 0 
 -2 -3 -7 0 

 c sixth condition 
 -4 6 0 
 -6 4 0 
 -5 8 0 
 -8 5 0 
 -7 9 0 
 -9 7 0 

 c seventh condition 
 -10 -11 0 
 -10 -12 0 
 -11 -12 0 
 -13 -14 0 
 -13 -15 0 
 -14 -15 0 
 -16 -17 0 
 -16 -18 0 
 -17 -18 0 

 c eighth condition 
 10 11 12 0 
 10 11 12 0 
 10 11 12 0 
 13 14 15 0 
 13 14 15 0 
 13 14 15 0 
 16 17 18 0 
 16 17 18 0 
 16 17 18 0 

 c ninth condition 
 -10 -13 0 
 -10 -16 0 
 -11 -14 0 
 -11 -17 0 
 -12 -15 0 
 -12 -18 0 
 -13 -16 0 
 -14 -17 0 
 -15 -18 0 

 c tenth condition 
 -1 -11 0 
 -2 -14 0 
 -3 -17 0 

 c eleventh condition 
 -4 -10 14 0 
 -4 -11 13 15 0 
 -4 -12 14 0 
 -5 -10 17 0 
 -5 -11 16 18 0 
 -5 -12 17 0 
 -7 -13 17 0 
 -7 -14 16 18 0 
 -7 -15 17 0 

 c twelfth condition 
4 0 
